100 8
614 402
453 110
617 921
236 451
308 311
309 361
936 354
564 804
825 389
383 476
293 750
715 531
596 850
749 291
759 507
612 473
657 681
871 284
47 266
191 374
805 745
560 279
542 946
696 662
628 569
114 549
865 217
727 603
117 398
454 273
360 414
700 652
72 279
629 248
863 787
705 488
100 523
673 689
308 334
346 330
582 480
551 395
272 638
361 238
340 820
227 362
655 478
857 720
111 565
681 580
673 389
171 423
129 332
924 224
703 644
355 369
163 286
637 292
623 665
493 965
193 162
627 267
687 739
86 213
120 455
232 474
929 217
329 482
103 592
775 336
63 573
278 562
298 145
695 734
755 777
697 517
839 815
764 691
753 630
309 820
292 340
108 263
736 667
844 219
645 820
684 825
839 332
489 859
354 292
404 225
879 239
803 266
610 944
570 307
554 436
800 632
599 424
689 708
393 389
245 571
